(set-info :smt-lib-version 2.6)
(set-info :category "crafted")
(set-logic QF_FFA)
(define-sort FF0 () (_ FiniteField 52435875175126190479447740508185965837690552500527637822603658699938581184513))
(declare-fun return_n1_alt () FF0)
(declare-fun mul_n29_alt () FF0)
(declare-fun mul_n36_alt () FF0)
(declare-fun mul_n30_alt () FF0)
(declare-fun mul_n35_alt () FF0)
(declare-fun mul_n34_alt () FF0)
(declare-fun j_n5_alt () FF0)
(declare-fun g_n11_alt () FF0)
(declare-fun mul_n33_alt () FF0)
(declare-fun d_n6_alt () FF0)
(declare-fun mul_n32_alt () FF0)
(declare-fun l_n0_alt () FF0)
(declare-fun mul_n31_alt () FF0)
(declare-fun a_n12_alt () FF0)
(declare-fun e_n4_alt () FF0)
(declare-fun b_n10_alt () FF0)
(declare-fun mul_n15_alt () FF0)
(declare-fun mul_n28_alt () FF0)
(declare-fun f_n2_alt () FF0)
(declare-fun mul_n22_alt () FF0)
(declare-fun mul_n13_alt () FF0)
(declare-fun mul_n27_alt () FF0)
(declare-fun mul_n24_alt () FF0)
(declare-fun mul_n26_alt () FF0)
(declare-fun mul_n25_alt () FF0)
(declare-fun mul_n21_alt () FF0)
(declare-fun mul_n16_alt () FF0)
(declare-fun mul_n23_alt () FF0)
(declare-fun k_n3_alt () FF0)
(declare-fun i_n7_alt () FF0)
(declare-fun h_n9_alt () FF0)
(declare-fun mul_n20_alt () FF0)
(declare-fun mul_n19_alt () FF0)
(declare-fun mul_n17_alt () FF0)
(declare-fun mul_n18_alt () FF0)
(declare-fun mul_n14_alt () FF0)
(declare-fun c_n8_alt () FF0)
(declare-fun return_n1 () FF0)
(declare-fun mul_n29 () FF0)
(declare-fun mul_n36 () FF0)
(declare-fun mul_n30 () FF0)
(declare-fun mul_n35 () FF0)
(declare-fun mul_n34 () FF0)
(declare-fun j_n5 () FF0)
(declare-fun g_n11 () FF0)
(declare-fun mul_n33 () FF0)
(declare-fun d_n6 () FF0)
(declare-fun mul_n32 () FF0)
(declare-fun l_n0 () FF0)
(declare-fun mul_n31 () FF0)
(declare-fun a_n12 () FF0)
(declare-fun e_n4 () FF0)
(declare-fun b_n10 () FF0)
(declare-fun mul_n15 () FF0)
(declare-fun mul_n28 () FF0)
(declare-fun f_n2 () FF0)
(declare-fun mul_n22 () FF0)
(declare-fun mul_n13 () FF0)
(declare-fun mul_n27 () FF0)
(declare-fun mul_n24 () FF0)
(declare-fun mul_n26 () FF0)
(declare-fun mul_n25 () FF0)
(declare-fun mul_n21 () FF0)
(declare-fun mul_n16 () FF0)
(declare-fun mul_n23 () FF0)
(declare-fun k_n3 () FF0)
(declare-fun i_n7 () FF0)
(declare-fun h_n9 () FF0)
(declare-fun mul_n20 () FF0)
(declare-fun mul_n19 () FF0)
(declare-fun mul_n17 () FF0)
(declare-fun mul_n18 () FF0)
(declare-fun mul_n14 () FF0)
(declare-fun c_n8 () FF0)
(assert 
  (let ((let0 return_n1_alt))
  (let ((let1 mul_n29_alt))
  (let ((let2 mul_n36_alt))
  (let ((let3 (ff.mul let2 let1)))
  (let ((let4 (= let3 let0)))
  (let ((let5 (as ff1 FF0)))
  (let ((let6 (as ff52435875175126190479447740508185965837690552500527637822603658699938581184512 FF0)))
  (let ((let7 mul_n30_alt))
  (let ((let8 (ff.mul let7 let6)))
  (let ((let9 (ff.add let8 let5)))
  (let ((let10 mul_n35_alt))
  (let ((let11 (ff.mul let10 let6)))
  (let ((let12 (ff.add let11 let5)))
  (let ((let13 (ff.mul let12 let9)))
  (let ((let14 (= let13 let2)))
  (let ((let15 mul_n34_alt))
  (let ((let16 (ff.mul let15 let6)))
  (let ((let17 (ff.add let16 let5)))
  (let ((let18 j_n5_alt))
  (let ((let19 (ff.mul let18 let17)))
  (let ((let20 (= let19 let10)))
  (let ((let21 g_n11_alt))
  (let ((let22 mul_n33_alt))
  (let ((let23 (ff.mul let22 let21)))
  (let ((let24 (= let23 let15)))
  (let ((let25 d_n6_alt))
  (let ((let26 mul_n32_alt))
  (let ((let27 (ff.mul let26 let25)))
  (let ((let28 (= let27 let22)))
  (let ((let29 l_n0_alt))
  (let ((let30 mul_n31_alt))
  (let ((let31 (ff.mul let30 let29)))
  (let ((let32 (= let31 let26)))
  (let ((let33 a_n12_alt))
  (let ((let34 (ff.mul let33 let33)))
  (let ((let35 (= let34 let30)))
  (let ((let36 e_n4_alt))
  (let ((let37 (ff.mul let36 let6)))
  (let ((let38 (ff.add let37 let5)))
  (let ((let39 b_n10_alt))
  (let ((let40 (ff.mul let39 let6)))
  (let ((let41 (ff.add let40 let5)))
  (let ((let42 (ff.mul let41 let38)))
  (let ((let43 (= let42 let7)))
  (let ((let44 mul_n15_alt))
  (let ((let45 mul_n28_alt))
  (let ((let46 (ff.mul let45 let44)))
  (let ((let47 (= let46 let1)))
  (let ((let48 f_n2_alt))
  (let ((let49 mul_n22_alt))
  (let ((let50 mul_n13_alt))
  (let ((let51 (ff.add let50 let49 let48)))
  (let ((let52 mul_n27_alt))
  (let ((let53 (ff.mul let52 let51)))
  (let ((let54 (= let53 let45)))
  (let ((let55 mul_n24_alt))
  (let ((let56 mul_n26_alt))
  (let ((let57 (ff.mul let56 let55)))
  (let ((let58 (= let57 let52)))
  (let ((let59 mul_n25_alt))
  (let ((let60 (ff.mul let59 let36)))
  (let ((let61 (= let60 let56)))
  (let ((let62 mul_n21_alt))
  (let ((let63 (ff.mul let51 let62)))
  (let ((let64 (= let63 let59)))
  (let ((let65 mul_n16_alt))
  (let ((let66 (ff.mul let65 let6)))
  (let ((let67 (ff.add let66 let5)))
  (let ((let68 mul_n23_alt))
  (let ((let69 (ff.mul let68 let67)))
  (let ((let70 (= let69 let55)))
  (let ((let71 k_n3_alt))
  (let ((let72 (ff.mul let71 let39)))
  (let ((let73 (= let72 let68)))
  (let ((let74 i_n7_alt))
  (let ((let75 (ff.mul let48 let6)))
  (let ((let76 (ff.mul let50 let6)))
  (let ((let77 (ff.add let76 let75 let74)))
  (let ((let78 (ff.mul let62 let77)))
  (let ((let79 (= let78 let49)))
  (let ((let80 h_n9_alt))
  (let ((let81 (ff.mul let80 let6)))
  (let ((let82 (ff.add let81 let5)))
  (let ((let83 mul_n20_alt))
  (let ((let84 (ff.mul let83 let82)))
  (let ((let85 (= let84 let62)))
  (let ((let86 mul_n19_alt))
  (let ((let87 (ff.mul let86 let29)))
  (let ((let88 (= let87 let83)))
  (let ((let89 mul_n17_alt))
  (let ((let90 (ff.mul let89 let6)))
  (let ((let91 (ff.add let90 let5)))
  (let ((let92 mul_n18_alt))
  (let ((let93 (ff.mul let92 let91)))
  (let ((let94 (= let93 let86)))
  (let ((let95 (ff.add let75 let5)))
  (let ((let96 (ff.mul let95 let74)))
  (let ((let97 (= let96 let92)))
  (let ((let98 (ff.mul let18 let6)))
  (let ((let99 (ff.add let98 let5)))
  (let ((let100 (ff.mul let99 let65)))
  (let ((let101 (= let100 let89)))
  (let ((let102 (ff.mul let21 let6)))
  (let ((let103 (ff.add let102 let5)))
  (let ((let104 (ff.mul let71 let103)))
  (let ((let105 (= let104 let65)))
  (let ((let106 (ff.add let76 let75 let5)))
  (let ((let107 mul_n14_alt))
  (let ((let108 (ff.mul let107 let106)))
  (let ((let109 (= let108 let44)))
  (let ((let110 (ff.mul let25 let6)))
  (let ((let111 (ff.add let110 let5)))
  (let ((let112 (ff.mul let111 let82)))
  (let ((let113 (= let112 let107)))
  (let ((let114 c_n8_alt))
  (let ((let115 (ff.add let114 let75)))
  (let ((let116 (ff.mul let36 let115)))
  (let ((let117 (= let116 let50)))
  (let ((let118 (and let117 let113 let109 let105 let101 let97 let94 let88 let85 let79 let73 let70 let64 let61 let58 let54 let47 let43 let35 let32 let28 let24 let20 let14 let4)))
  (let ((let119 return_n1))
  (let ((let120 mul_n29))
  (let ((let121 mul_n36))
  (let ((let122 (ff.mul let121 let120)))
  (let ((let123 (= let122 let119)))
  (let ((let124 mul_n30))
  (let ((let125 (ff.mul let124 let6)))
  (let ((let126 (ff.add let125 let5)))
  (let ((let127 mul_n35))
  (let ((let128 (ff.mul let127 let6)))
  (let ((let129 (ff.add let128 let5)))
  (let ((let130 (ff.mul let129 let126)))
  (let ((let131 (= let130 let121)))
  (let ((let132 mul_n34))
  (let ((let133 (ff.mul let132 let6)))
  (let ((let134 (ff.add let133 let5)))
  (let ((let135 j_n5))
  (let ((let136 (ff.mul let135 let134)))
  (let ((let137 (= let136 let127)))
  (let ((let138 g_n11))
  (let ((let139 mul_n33))
  (let ((let140 (ff.mul let139 let138)))
  (let ((let141 (= let140 let132)))
  (let ((let142 d_n6))
  (let ((let143 mul_n32))
  (let ((let144 (ff.mul let143 let142)))
  (let ((let145 (= let144 let139)))
  (let ((let146 l_n0))
  (let ((let147 mul_n31))
  (let ((let148 (ff.mul let147 let146)))
  (let ((let149 (= let148 let143)))
  (let ((let150 a_n12))
  (let ((let151 (ff.mul let150 let150)))
  (let ((let152 (= let151 let147)))
  (let ((let153 e_n4))
  (let ((let154 (ff.mul let153 let6)))
  (let ((let155 (ff.add let154 let5)))
  (let ((let156 b_n10))
  (let ((let157 (ff.mul let156 let6)))
  (let ((let158 (ff.add let157 let5)))
  (let ((let159 (ff.mul let158 let155)))
  (let ((let160 (= let159 let124)))
  (let ((let161 mul_n15))
  (let ((let162 mul_n28))
  (let ((let163 (ff.mul let162 let161)))
  (let ((let164 (= let163 let120)))
  (let ((let165 f_n2))
  (let ((let166 mul_n22))
  (let ((let167 mul_n13))
  (let ((let168 (ff.add let167 let166 let165)))
  (let ((let169 mul_n27))
  (let ((let170 (ff.mul let169 let168)))
  (let ((let171 (= let170 let162)))
  (let ((let172 mul_n24))
  (let ((let173 mul_n26))
  (let ((let174 (ff.mul let173 let172)))
  (let ((let175 (= let174 let169)))
  (let ((let176 mul_n25))
  (let ((let177 (ff.mul let176 let153)))
  (let ((let178 (= let177 let173)))
  (let ((let179 mul_n21))
  (let ((let180 (ff.mul let168 let179)))
  (let ((let181 (= let180 let176)))
  (let ((let182 mul_n16))
  (let ((let183 (ff.mul let182 let6)))
  (let ((let184 (ff.add let183 let5)))
  (let ((let185 mul_n23))
  (let ((let186 (ff.mul let185 let184)))
  (let ((let187 (= let186 let172)))
  (let ((let188 k_n3))
  (let ((let189 (ff.mul let188 let156)))
  (let ((let190 (= let189 let185)))
  (let ((let191 i_n7))
  (let ((let192 (ff.mul let165 let6)))
  (let ((let193 (ff.mul let167 let6)))
  (let ((let194 (ff.add let193 let192 let191)))
  (let ((let195 (ff.mul let179 let194)))
  (let ((let196 (= let195 let166)))
  (let ((let197 h_n9))
  (let ((let198 (ff.mul let197 let6)))
  (let ((let199 (ff.add let198 let5)))
  (let ((let200 mul_n20))
  (let ((let201 (ff.mul let200 let199)))
  (let ((let202 (= let201 let179)))
  (let ((let203 mul_n19))
  (let ((let204 (ff.mul let203 let146)))
  (let ((let205 (= let204 let200)))
  (let ((let206 mul_n17))
  (let ((let207 (ff.mul let206 let6)))
  (let ((let208 (ff.add let207 let5)))
  (let ((let209 mul_n18))
  (let ((let210 (ff.mul let209 let208)))
  (let ((let211 (= let210 let203)))
  (let ((let212 (ff.add let192 let5)))
  (let ((let213 (ff.mul let212 let191)))
  (let ((let214 (= let213 let209)))
  (let ((let215 (ff.mul let135 let6)))
  (let ((let216 (ff.add let215 let5)))
  (let ((let217 (ff.mul let216 let182)))
  (let ((let218 (= let217 let206)))
  (let ((let219 (ff.mul let138 let6)))
  (let ((let220 (ff.add let219 let5)))
  (let ((let221 (ff.mul let188 let220)))
  (let ((let222 (= let221 let182)))
  (let ((let223 (ff.add let193 let192 let5)))
  (let ((let224 mul_n14))
  (let ((let225 (ff.mul let224 let223)))
  (let ((let226 (= let225 let161)))
  (let ((let227 (ff.mul let142 let6)))
  (let ((let228 (ff.add let227 let5)))
  (let ((let229 (ff.mul let228 let199)))
  (let ((let230 (= let229 let224)))
  (let ((let231 c_n8))
  (let ((let232 (ff.add let231 let192)))
  (let ((let233 (ff.mul let153 let232)))
  (let ((let234 (= let233 let167)))
  (let ((let235 (and let234 let230 let226 let222 let218 let214 let211 let205 let202 let196 let190 let187 let181 let178 let175 let171 let164 let160 let152 let149 let145 let141 let137 let131 let123)))
  (let ((let236 (= let119 let0)))
  (let ((let237 (not let236)))
  (let ((let238 (= let191 let74)))
  (let ((let239 (= let165 let48)))
  (let ((let240 (= let188 let71)))
  (let ((let241 (= let156 let39)))
  (let ((let242 (= let197 let80)))
  (let ((let243 (= let150 let33)))
  (let ((let244 (= let142 let25)))
  (let ((let245 (= let146 let29)))
  (let ((let246 (= let231 let114)))
  (let ((let247 (= let153 let36)))
  (let ((let248 (= let138 let21)))
  (let ((let249 (= let135 let18)))
  (let ((let250 (and let249 let248 let247 let246 let245 let244 let243 let242 let241 let240 let239 let238)))
  (let ((let251 (and let250 let237 let235 let118)))
  let251
))))))))))))))))))))))))))))))))))))))))))))))))))))))))))))))))))))))))))))))))))))))))))))))))))))))))))))))))))))))))))))))))))))))))))))))))))))))))))))))))))))))))))))))))))))))))))))))))))))))))))))))))))))))))))))))))))))))))))))))))))))))))))))
)
(check-sat)
